
        $ From http://www.csplib.org/Problems/prob009/data/helmut.pdf
        $ Problem number 84
        $ Sequence length : 25
        language ESSENCE' 1.0
        letting sizemaster be 320
        letting sizes be sequence(3,8,9,11,17,18,22,25,26,27,29,30,31,33,35,49,51,67,72,73,80,85,95,152,168)
        